NAME          
ROWS
 N  OBJ
 L  c1
COLUMNS
    MARKER    'MARKER'                 'INTORG'
    x[1]      c1        818
    x[1]      OBJ       -174
    x[2]      c1        115
    x[2]      OBJ       -1000
    x[3]      c1        935
    x[3]      OBJ       -171
    x[4]      c1        819
    x[4]      OBJ       -222
    x[5]      c1        107
    x[5]      OBJ       -546
    x[6]      c1        540
    x[6]      OBJ       -473
    x[7]      c1        677
    x[7]      OBJ       -830
    x[8]      c1        821
    x[8]      OBJ       -359
    x[9]      c1        760
    x[9]      OBJ       -652
    x[10]     c1        402
    x[10]     OBJ       -420
    x[11]     c1        433
    x[11]     OBJ       -793
    x[12]     c1        129
    x[12]     OBJ       -787
    x[13]     c1        22
    x[13]     OBJ       -202
    x[14]     c1        192
    x[14]     OBJ       -811
    x[15]     c1        202
    x[15]     OBJ       -297
    x[16]     c1        920
    x[16]     OBJ       -918
    x[17]     c1        638
    x[17]     OBJ       -509
    x[18]     c1        43
    x[18]     OBJ       -56
    x[19]     c1        615
    x[19]     OBJ       -290
    x[20]     c1        728
    x[20]     OBJ       -400
    x[21]     c1        393
    x[21]     OBJ       -369
    x[22]     c1        138
    x[22]     OBJ       -331
    x[23]     c1        483
    x[23]     OBJ       -45
    x[24]     c1        209
    x[24]     OBJ       -721
    x[25]     c1        853
    x[25]     OBJ       -89
    x[26]     c1        239
    x[26]     OBJ       -296
    x[27]     c1        891
    x[27]     OBJ       -558
    x[28]     c1        879
    x[28]     OBJ       -942
    x[29]     c1        533
    x[29]     OBJ       -53
    x[30]     c1        789
    x[30]     OBJ       -262
    x[31]     c1        634
    x[31]     OBJ       -654
    x[32]     c1        754
    x[32]     OBJ       -107
    x[33]     c1        632
    x[33]     OBJ       -443
    x[34]     c1        641
    x[34]     OBJ       -273
    x[35]     c1        32
    x[35]     OBJ       -7
    x[36]     c1        886
    x[36]     OBJ       -94
    x[37]     c1        528
    x[37]     OBJ       -349
    x[38]     c1        882
    x[38]     OBJ       -964
    x[39]     c1        605
    x[39]     OBJ       -558
    x[40]     c1        735
    x[40]     OBJ       -440
RHS
    rhs       c1        10826
RANGES
BOUNDS
 BV bounds    x[1]
 BV bounds    x[2]
 BV bounds    x[3]
 BV bounds    x[4]
 BV bounds    x[5]
 BV bounds    x[6]
 BV bounds    x[7]
 BV bounds    x[8]
 BV bounds    x[9]
 BV bounds    x[10]
 BV bounds    x[11]
 BV bounds    x[12]
 BV bounds    x[13]
 BV bounds    x[14]
 BV bounds    x[15]
 BV bounds    x[16]
 BV bounds    x[17]
 BV bounds    x[18]
 BV bounds    x[19]
 BV bounds    x[20]
 BV bounds    x[21]
 BV bounds    x[22]
 BV bounds    x[23]
 BV bounds    x[24]
 BV bounds    x[25]
 BV bounds    x[26]
 BV bounds    x[27]
 BV bounds    x[28]
 BV bounds    x[29]
 BV bounds    x[30]
 BV bounds    x[31]
 BV bounds    x[32]
 BV bounds    x[33]
 BV bounds    x[34]
 BV bounds    x[35]
 BV bounds    x[36]
 BV bounds    x[37]
 BV bounds    x[38]
 BV bounds    x[39]
 BV bounds    x[40]
ENDATA
